tsp_instances/TSP50/instance126.tsp
NODE_COORD_SECTION
0 142 172
1 194 116
2 130 143
3 105 196
4 92 85
5 76 197
6 182 142
7 75 156
8 172 48
9 0 117
10 91 64
11 84 122
12 50 172
13 72 143
14 188 98
15 33 112
16 154 139
17 200 115
18 127 80
19 88 91
20 86 37
21 57 126
22 110 1
23 99 154
24 126 94
25 190 118
26 192 36
27 193 181
28 149 66
29 49 45
30 66 30
31 168 54
32 189 139
33 94 96
34 17 6
35 169 118
36 18 41
37 188 190
38 115 45
39 29 172
40 1 37
41 26 89
42 184 23
43 185 158
44 41 121
45 133 35
46 165 120
47 61 86
48 90 64
49 133 108
