tsp_instances/TSP50/instance126.opt.tour
TOUR_SECTION
1
4
6
13
40
10
16
45
22
14
8
24
12
34
20
5
11
49
48
42
37
41
35
30
31
21
23
39
46
43
27
9
32
29
19
25
50
3
17
47
36
15
18
2
26
33
7
44
28
38
-1